asp/input/in_60_30_6_2.lp
#const n = 60.
#const k = 30.
#const h = 6.
tile(1,28,16).
tile(2,10,17).
tile(3,19,17).
tile(4,27,4).
tile(5,1,19).
tile(6,12,3).
tile(7,19,28).
tile(8,4,19).
tile(9,22,30).
tile(10,5,15).
tile(11,11,23).
tile(12,14,23).
tile(13,11,1).
tile(14,14,16).
tile(15,3,2).
tile(16,5,8).
tile(17,7,21).
tile(18,27,2).
tile(19,26,23).
tile(20,27,6).
tile(21,13,25).
tile(22,15,16).
tile(23,22,28).
tile(24,22,11).
tile(25,14,7).
tile(26,13,30).
tile(27,9,29).
tile(28,27,15).
tile(29,16,18).
tile(30,19,27).
tile(31,14,28).
tile(32,27,11).
tile(33,6,7).
tile(34,20,8).
tile(35,24,11).
tile(36,26,24).
tile(37,30,21).
tile(38,19,5).
tile(39,13,13).
tile(40,30,10).
tile(41,30,20).
tile(42,4,9).
tile(43,28,21).
tile(44,5,6).
tile(45,9,28).
tile(46,4,10).
tile(47,13,22).
tile(48,7,1).
tile(49,28,21).
tile(50,10,9).
tile(51,3,8).
tile(52,23,22).
tile(53,22,25).
tile(54,21,9).
tile(55,11,13).
tile(56,24,4).
tile(57,10,3).
tile(58,27,8).
tile(59,2,1).
tile(60,2,30).
