instances/in_60_30_6_2.dzn
n = 60;
k = 30;
h = 6;
tiles = array2d(1..n, 1..2,
[ 28,16
, 10,17
, 19,17
, 27,4
, 1,19
, 12,3
, 19,28
, 4,19
, 22,30
, 5,15
, 11,23
, 14,23
, 11,1
, 14,16
, 3,2
, 5,8
, 7,21
, 27,2
, 26,23
, 27,6
, 13,25
, 15,16
, 22,28
, 22,11
, 14,7
, 13,30
, 9,29
, 27,15
, 16,18
, 19,27
, 14,28
, 27,11
, 6,7
, 20,8
, 24,11
, 26,24
, 30,21
, 19,5
, 13,13
, 30,10
, 30,20
, 4,9
, 28,21
, 5,6
, 9,28
, 4,10
, 13,22
, 7,1
, 28,21
, 10,9
, 3,8
, 23,22
, 22,25
, 21,9
, 11,13
, 24,4
, 10,3
, 27,8
, 2,1
, 2,30
]);